c random clauses
p cnf 18 32
-18 -16 -14 -11 -10 -8 -6 15 0
-18 -15 -12 -11 -5 -1 13 16 0
-18 -15 -11 -8 -2 1 10 13 0
-18 -14 -9 -1 2 7 10 17 0
-17 -16 -15 -14 -13 -10 -4 18 0
-17 -15 -8 -1 3 6 7 16 0
-17 -12 -10 -2 1 5 14 18 0
-16 -15 -14 -13 -4 8 11 17 0
-16 -14 -8 -6 -5 -3 4 17 0
-16 -13 -7 -3 -1 5 6 14 0
-16 -13 -5 -1 7 8 10 11 0
-16 -11 -5 1 2 3 13 14 0
-16 -10 -7 -6 8 11 15 17 0
-16 -9 -8 -4 1 5 6 12 0
-16 -9 -7 -3 -2 4 10 15 0
-16 -1 3 7 9 10 11 18 0
-15 -14 3 5 10 12 13 17 0
-15 -13 -8 3 4 9 16 18 0
-14 -12 -10 -9 -5 -3 -1 2 0
-14 -11 -7 2 10 12 16 17 0
-14 -9 -6 3 4 7 13 16 0
-13 -12 -8 -3 4 7 17 18 0
-13 -12 -7 -5 -3 6 9 17 0
-13 -9 -4 1 2 5 8 14 0
-13 -5 -2 3 4 9 11 15 0
-12 -11 -5 -1 2 4 9 10 0
-12 -10 -6 2 3 11 15 18 0
-12 1 2 3 5 6 9 15 0
-9 -7 -5 -4 -3 1 12 14 0
-8 -1 6 7 11 14 17 18 0
-7 -5 -2 3 6 12 15 17 0
-3 -2 -1 6 12 14 15 17 0
